************************************************************************
file with basedata            : md382_.bas
initial value random generator: 2076718787
************************************************************************
projects                      :  1
jobs (incl. supersource/sink ):  22
horizon                       :  167
RESOURCES
  - renewable                 :  2   R
  - nonrenewable              :  2   N
  - doubly constrained        :  0   D
************************************************************************
PROJECT INFORMATION:
pronr.  #jobs rel.date duedate tardcost  MPM-Time
    1     20      0       23        3       23
************************************************************************
PRECEDENCE RELATIONS:
jobnr.    #modes  #successors   successors
   1        1          3           2   3   4
   2        3          3           5   7   9
   3        3          2          11  14
   4        3          3           6  11  17
   5        3          3           8  10  16
   6        3          1          12
   7        3          1          14
   8        3          3          13  14  18
   9        3          3          15  17  21
  10        3          2          11  15
  11        3          3          13  19  21
  12        3          3          13  19  21
  13        3          1          20
  14        3          1          15
  15        3          2          19  20
  16        3          1          18
  17        3          1          18
  18        3          1          20
  19        3          1          22
  20        3          1          22
  21        3          1          22
  22        1          0        
************************************************************************
REQUESTS/DURATIONS:
jobnr. mode duration  R 1  R 2  N 1  N 2
------------------------------------------------------------------------
  1      1     0       0    0    0    0
  2      1     1       5    6    6   10
         2     4       4    5    3    9
         3    10       2    5    3    7
  3      1     2       5    9    5    7
         2     5       5    8    5    6
         3     7       4    6    5    6
  4      1     8       8    5    7    6
         2    10       6    1    3    2
         3    10       5    2    3    3
  5      1     2       7    5    8    6
         2     5       5    3    5    4
         3     5       2    4    6    3
  6      1     5      10    7    3   10
         2     8      10    6    3    9
         3     9       9    2    3    9
  7      1     2       9   10    3    4
         2     8       8    6    3    2
         3     8       9    6    3    1
  8      1     4       6    3    7    6
         2     5       6    2    6    6
         3     7       5    2    2    6
  9      1     4       4    5    6    4
         2     9       4    5    5    4
         3    10       3    2    3    3
 10      1     2       4    7    8    8
         2     6       4    5    6    8
         3     9       4    3    5    7
 11      1     3       7    7    9    3
         2     7       7    5    7    2
         3     9       6    3    7    1
 12      1     4       5    7    7    8
         2    10       4    3    4    5
         3    10       5    4    3    7
 13      1     5       3    6    7    2
         2     6       3    6    7    1
         3    10       3    3    6    1
 14      1     3      10    2    8    6
         2     6       9    2    8    5
         3     6      10    2    8    2
 15      1     6      10    4    4    5
         2     9       5    4    4    4
         3    10       5    4    3    3
 16      1     1       7    6    7    8
         2     1       9    5    8    8
         3     6       4    3    7    8
 17      1     1      10    6    4    8
         2     4       8    5    4    6
         3     6       6    5    3    4
 18      1     2       8    5    2   10
         2     7       7    5    2    9
         3     7       6    5    1   10
 19      1     3       6    2    6    8
         2     4       5    2    5    6
         3    10       5    1    2    6
 20      1     1       6    9    9    6
         2     7       5    6    7    4
         3     8       4    4    7    1
 21      1     2       9    7    9   10
         2     3       9    6    6    6
         3    10       9    4    5    5
 22      1     0       0    0    0    0
************************************************************************
RESOURCEAVAILABILITIES:
  R 1  R 2  N 1  N 2
   23   20  126  135
************************************************************************
MAXIMAL LAGS:
from  to  type  delay
    1   12   ES      0
    1    2   ES      0
    2   12   ES      0
    1    3   ES      0
    3   12   ES      0
    1    4   ES      0
    4   12   ES      0
    1    5   ES      0
    5   12   ES      0
    1    6   ES      0
    6   12   ES      0
    1    7   ES      0
    7   12   ES      0
    1    8   ES      0
    8   12   ES      0
    1    9   ES      0
    9   12   ES      0
    1   10   ES      0
   10   12   ES      0
    1   11   ES      0
   11   12   ES      0
    1   12   ES      0
    2    5   SS      3
    2    5   SE      9
    2    5   ES      4
    2    5   EE     -2
    2    7   SS    -11
    2    7   SE     10
    2    7   ES      2
    2    7   EE      4
    2    9   SS      8
    2    9   SE      1
    2    9   ES      3
    2    9   EE     -7
    3   11   SS     12
    3   11   SE     -2
    3   11   ES     -5
    3   11   EE    -11
    3   14   SS     12
    3   14   SE      4
    3   14   ES     -9
    3   14   EE     -2
    4    6   SS      4
    4    6   SE    -12
    4    6   ES      5
    4    6   EE      0
    4   11   SS      2
    4   11   SE      4
    4   11   ES      9
    4   11   EE     12
    4   17   SS      7
    4   17   SE     -4
    4   17   ES     -1
    4   17   EE     -9
    5    8   SS     -9
    5    8   SE      7
    5    8   ES     -5
    5    8   EE      9
    5   10   SS     -7
    5   10   SE     -3
    5   10   ES      1
    5   10   EE      3
    5   16   SS    -10
    5   16   SE      8
    5   16   ES     10
    5   16   EE      8
    7   14   SS      6
    7   14   SE      7
    7   14   ES      6
    7   14   EE     -8
    8   13   SS      2
    8   13   SE     -2
    8   13   ES     -7
    8   13   EE     -6
    8   14   SS      2
    8   14   SE     -9
    8   14   ES    -12
    8   14   EE    -12
    8   18   SS     11
    8   18   SE     -8
    8   18   ES     11
    8   18   EE      7
    9   15   SS     -1
    9   15   SE      7
    9   15   ES      8
    9   15   EE      0
    9   17   SS     -6
    9   17   SE     -2
    9   17   ES    -10
    9   17   EE     12
    9   21   SS      5
    9   21   SE      3
    9   21   ES     -1
    9   21   EE      2
   10   11   SS    -11
   10   11   SE     -1
   10   11   ES     -6
   10   11   EE     -7
   10   15   SS    -11
   10   15   SE      6
   10   15   ES     10
   10   15   EE     -5
   11   13   SS      0
   11   13   SE    -10
   11   13   ES     -5
   11   13   EE      9
   11   19   SS      8
   11   19   SE    -12
   11   19   ES    -10
   11   19   EE     -3
   11   21   SS     -3
   11   21   SE      1
   11   21   ES     -4
   11   21   EE     -9
   12   13   SS      7
   12   13   SE      3
   12   13   ES     -7
   12   13   EE     10
   12   19   SS      6
   12   19   SE      9
   12   19   ES     -3
   12   19   EE    -10
   12   21   SS      9
   12   21   SE    -11
   12   21   ES     -6
   12   21   EE      1
   13   20   SS      3
   13   20   SE     -2
   13   20   ES      4
   13   20   EE    -12
   14   15   SS      0
   14   15   SE      6
   14   15   ES     12
   14   15   EE     11
   15   19   SS     -5
   15   19   SE     -8
   15   19   ES     10
   15   19   EE     11
   15   20   SS     12
   15   20   SE     12
   15   20   ES     11
   15   20   EE      4
   16   18   SS      6
   16   18   SE     -4
   16   18   ES    -11
   16   18   EE    -10
   17   18   SS    -10
   17   18   SE      2
   17   18   ES    -10
   17   18   EE     -6
   18   20   SS    -11
   18   20   SE     12
   18   20   ES     -5
   18   20   EE     10
   19   22   SS      3
   19   22   SE    -12
   19   22   ES      7
   19   22   EE      2
   20   22   SS     -9
   20   22   SE      4
   20   22   ES     -4
   20   22   EE      1
   21   22   SS      2
   21   22   SE      6
   21   22   ES    -11
   21   22   EE      5
************************************************************************
